
Gurobi 9.0.1 (linux64) logging started Thu Apr 30 19:28:58 2020

Gurobi Optimizer version 9.0.1 build v9.0.1rc0 (linux64)
Optimize a model with 31542 rows, 27380 columns and 602600 nonzeros
Model fingerprint: 0xa886a134
Variable types: 0 continuous, 27380 integer (27342 binary)
Coefficient statistics:
  Matrix range     [1e+00, 2e+01]
  Objective range  [3e+00, 1e+02]
  Bounds range     [1e+00, 1e+00]
  RHS range        [1e+00, 1e+00]

User MIP start produced solution with objective 1186 (0.88s)
Loaded user MIP start with objective 1186

Presolve removed 12792 rows and 8709 columns (presolve time = 5s) ...
Presolve removed 12834 rows and 8769 columns (presolve time = 11s) ...
Presolve removed 12834 rows and 8769 columns
Presolve time: 10.70s
Presolved: 18708 rows, 18611 columns, 503740 nonzeros
Variable types: 0 continuous, 18611 integer (18575 binary)

Root simplex log...

Iteration    Objective       Primal Inf.    Dual Inf.      Time
       0    0.0000000e+00   2.280000e+02   0.000000e+00     13s
    2048    5.2500009e+02   4.156737e+04   0.000000e+00     15s
    4064    5.3780010e+02   1.059116e+04   0.000000e+00     20s
    5576    5.4382302e+02   8.186141e+03   0.000000e+00     25s
    6836    5.4826025e+02   1.114711e+04   0.000000e+00     30s
    7928    5.5301949e+02   1.200643e+04   0.000000e+00     35s
    9020    5.5501130e+02   1.507963e+04   0.000000e+00     40s
   10028    5.5791409e+02   1.127110e+04   0.000000e+00     45s
   11036    5.5983455e+02   8.732156e+03   0.000000e+00     50s
   11960    5.6391090e+02   4.808684e+03   0.000000e+00     55s
   12800    5.6631337e+02   7.785474e+03   0.000000e+00     60s
   13724    5.6739186e+02   3.100857e+04   0.000000e+00     65s
   14564    5.6905471e+02   1.587706e+04   0.000000e+00     70s
   15320    5.7003677e+02   2.550978e+03   0.000000e+00     75s
   16160    5.7118325e+02   6.909090e+03   0.000000e+00     80s
   16916    5.7224288e+02   1.896771e+04   0.000000e+00     85s
   17756    5.7364590e+02   1.593391e+03   0.000000e+00     90s
   18512    5.7469905e+02   1.792724e+03   0.000000e+00     95s
   19281    5.7498376e+02   2.900800e+03   0.000000e+00    100s
   20037    5.7552774e+02   1.262172e+04   0.000000e+00    105s
   20877    5.7609817e+02   2.309331e+03   0.000000e+00    110s
   21549    5.7656272e+02   2.261332e+03   0.000000e+00    115s
   22305    5.7693637e+02   4.803671e+03   0.000000e+00    120s
   22977    5.7729401e+02   1.581882e+03   0.000000e+00    125s
   23733    5.7782446e+02   9.949174e+02   0.000000e+00    130s
   24405    5.7839135e+02   3.647754e+03   0.000000e+00    135s
   25161    5.7868124e+02   1.629547e+03   0.000000e+00    140s
   25917    5.7935033e+02   1.820800e+03   0.000000e+00    145s
   26619    5.7964635e+02   3.299253e+03   0.000000e+00    150s
   27291    5.7994716e+02   1.706291e+03   0.000000e+00    155s
   27963    5.8021261e+02   8.229177e+03   0.000000e+00    160s
   28635    5.8046788e+02   4.776649e+02   0.000000e+00    165s
   29307    5.8068900e+02   6.981379e+02   0.000000e+00    170s
   29979    5.8104034e+02   1.185144e+03   0.000000e+00    175s
   30651    5.8137522e+02   2.135697e+02   0.000000e+00    181s
   31155    5.8155658e+02   3.118802e+02   0.000000e+00    185s
   31823    5.8167087e+02   5.425186e+00   0.000000e+00    191s
   31940    5.8167290e+02   0.000000e+00   0.000000e+00    192s

Root relaxation: objective 5.816729e+02, 31940 iterations, 179.88 seconds

    Nodes    |    Current Node    |     Objective Bounds      |     Work
 Expl Unexpl |  Obj  Depth IntInf | Incumbent    BestBd   Gap | It/Node Time

     0     0  581.67290    0 3147 1186.00000  581.67290  51.0%     -  201s
     0     0  620.40148    0 3115 1186.00000  620.40148  47.7%     -  371s
     0     0  621.15248    0 3098 1186.00000  621.15248  47.6%     -  405s
     0     0  621.20106    0 3091 1186.00000  621.20106  47.6%     -  412s
     0     0  621.20471    0 3085 1186.00000  621.20471  47.6%     -  415s
     0     0  630.65597    0 3155 1186.00000  630.65597  46.8%     -  552s
     0     0  630.76640    0 3144 1186.00000  630.76640  46.8%     -  568s
     0     0  630.77428    0 3133 1186.00000  630.77428  46.8%     -  571s
     0     0  639.73091    0 3184 1186.00000  639.73091  46.1%     -  809s
     0     0  641.16236    0 3203 1186.00000  641.16236  45.9%     -  865s
     0     0  642.32779    0 3233 1186.00000  642.32779  45.8%     -  919s
     0     0  642.58486    0 3222 1186.00000  642.58486  45.8%     -  945s
     0     0  642.63264    0 3224 1186.00000  642.63264  45.8%     -  954s
     0     0  642.64133    0 3236 1186.00000  642.64133  45.8%     -  960s
     0     0  650.32203    0 3249 1186.00000  650.32203  45.2%     - 1182s
     0     0  650.79487    0 3270 1186.00000  650.79487  45.1%     - 1223s
     0     0  650.83427    0 3276 1186.00000  650.83427  45.1%     - 1231s
     0     0  650.84510    0 3275 1186.00000  650.84510  45.1%     - 1236s
     0     0  651.73547    0 3296 1186.00000  651.73547  45.0%     - 1299s
     0     0  651.81207    0 3298 1186.00000  651.81207  45.0%     - 1316s
     0     0  651.83306    0 3296 1186.00000  651.83306  45.0%     - 1323s
     0     0  651.83596    0 3294 1186.00000  651.83596  45.0%     - 1326s
     0     0  652.88582    0 3288 1186.00000  652.88582  45.0%     - 1403s
     0     0  653.02396    0 3279 1186.00000  653.02396  44.9%     - 1436s
     0     0  653.05025    0 3286 1186.00000  653.05025  44.9%     - 1445s
     0     0  653.05995    0 3298 1186.00000  653.05995  44.9%     - 1451s
     0     0  653.80314    0 3315 1186.00000  653.80314  44.9%     - 1534s
     0     0  653.93443    0 3315 1186.00000  653.93443  44.9%     - 1579s
     0     0  653.96092    0 3324 1186.00000  653.96092  44.9%     - 1588s
     0     0  653.97136    0 3325 1186.00000  653.97136  44.9%     - 1594s
     0     0  654.36908    0 3300 1186.00000  654.36908  44.8%     - 1641s
     0     0  654.45206    0 3330 1186.00000  654.45206  44.8%     - 1709s
     0     0  654.49378    0 3325 1186.00000  654.49378  44.8%     - 1721s
     0     0  654.50667    0 3327 1186.00000  654.50667  44.8%     - 1729s
     0     0  655.00353    0 3345 1186.00000  655.00353  44.8%     - 1783s
     0     0  655.07085    0 3343 1186.00000  655.07085  44.8%     - 1863s
     0     0  655.08753    0 3355 1186.00000  655.08753  44.8%     - 1871s
     0     0  655.29613    0 3348 1186.00000  655.29613  44.7%     - 1913s
     0     0  655.33787    0 3362 1186.00000  655.33787  44.7%     - 1930s
     0     0  655.35230    0 3364 1186.00000  655.35230  44.7%     - 1936s
     0     0  655.93951    0 3358 1186.00000  655.93951  44.7%     - 2001s
     0     0  655.98168    0 3349 1186.00000  655.98168  44.7%     - 2016s
     0     0  655.99588    0 3324 1186.00000  655.99588  44.7%     - 2024s
     0     0  656.45860    0 3318 1186.00000  656.45860  44.6%     - 2077s
     0     0  656.50037    0 3330 1186.00000  656.50037  44.6%     - 2099s
     0     0  656.51670    0 3325 1186.00000  656.51670  44.6%     - 2107s
     0     0  657.14174    0 3278 1186.00000  657.14174  44.6%     - 2156s
     0     0  657.20732    0 3294 1186.00000  657.20732  44.6%     - 2265s
     0     0  657.24244    0 3308 1186.00000  657.24244  44.6%     - 2276s
     0     0  657.25134    0 3313 1186.00000  657.25134  44.6%     - 2282s
     0     0  657.59129    0 3337 1186.00000  657.59129  44.6%     - 2328s
     0     0  657.65529    0 3341 1186.00000  657.65529  44.5%     - 2346s
     0     0  657.67520    0 3349 1186.00000  657.67520  44.5%     - 2356s
     0     0  657.94655    0 3333 1186.00000  657.94655  44.5%     - 2395s
     0     0  657.97411    0 3348 1186.00000  657.97411  44.5%     - 2412s
     0     0  657.98747    0 3344 1186.00000  657.98747  44.5%     - 2420s
     0     0  658.20920    0 3339 1186.00000  658.20920  44.5%     - 2460s
     0     0  658.23598    0 3329 1186.00000  658.23598  44.5%     - 2475s
     0     0  658.24226    0 3330 1186.00000  658.24226  44.5%     - 2481s
     0     0  658.53991    0 3306 1186.00000  658.53991  44.5%     - 2527s
     0     0  658.57618    0 3331 1186.00000  658.57618  44.5%     - 2545s
     0     0  658.58235    0 3333 1186.00000  658.58235  44.5%     - 2551s
     0     0  659.04970    0 3318 1186.00000  659.04970  44.4%     - 2604s
     0     0  659.12128    0 3334 1186.00000  659.12128  44.4%     - 2625s
     0     0  659.17008    0 3347 1186.00000  659.17008  44.4%     - 2638s
     0     0  659.17900    0 3344 1186.00000  659.17900  44.4%     - 2644s
     0     0  659.64735    0 3317 1186.00000  659.64735  44.4%     - 2702s
     0     0  659.74617    0 3317 1186.00000  659.74617  44.4%     - 2727s
     0     0  659.76650    0 3333 1186.00000  659.76650  44.4%     - 2736s
     0     0  660.47619    0 3332 1186.00000  660.47619  44.3%     - 2803s
     0     0  660.58052    0 3356 1186.00000  660.58052  44.3%     - 2832s
     0     0  660.59297    0 3367 1186.00000  660.59297  44.3%     - 2840s
     0     0  660.84872    0 3345 1186.00000  660.84872  44.3%     - 2881s
     0     0  660.88655    0 3338 1186.00000  660.88655  44.3%     - 2898s
     0     0  660.91689    0 3352 1186.00000  660.91689  44.3%     - 2908s
     0     0  660.92557    0 3348 1186.00000  660.92557  44.3%     - 2914s
     0     0  661.21751    0 3351 1186.00000  661.21751  44.2%     - 2958s
     0     0  661.26089    0 3361 1186.00000  661.26089  44.2%     - 2975s
     0     0  661.27058    0 3368 1186.00000  661.27058  44.2%     - 2981s
     0     0  661.79333    0 3337 1186.00000  661.79333  44.2%     - 3038s
     0     0  661.93792    0 3366 1186.00000  661.93792  44.2%     - 3065s
     0     0  661.96341    0 3367 1186.00000  661.96341  44.2%     - 3076s
     0     0  662.31049    0 3348 1186.00000  662.31049  44.2%     - 3126s
     0     0  662.34204    0 3373 1186.00000  662.34204  44.2%     - 3143s
     0     0  662.35460    0 3368 1186.00000  662.35460  44.2%     - 3150s
     0     0  662.49724    0 3352 1186.00000  662.49724  44.1%     - 3182s
     0     0  662.49724    0 3352 1186.00000  662.49724  44.1%     - 3208s

Cutting planes:
  MIR: 121
  StrongCG: 13
  Zero half: 36
  Mod-K: 18
  RLT: 1727

Explored 1 nodes (240260 simplex iterations) in 3600.03 seconds
Thread count was 1 (of 40 available processors)

Solution count 1: 1186 

Time limit reached
Best objective 1.186000000000e+03, best bound 6.630000000000e+02, gap 44.0978%

User-callback calls 17066, time in user-callback 0.04 sec
